%%% static parameters %%%
timespan = 1;
Fact = [2];
Distr1 = [5];
Distr2 = [10];
Clients_N = [100];
Demand_W = [15];
Lt0 = [4];
Lt1 = [4];
SS_ = [0.85];
DS_D = [8];
K = [200];
MA = [500];
%%% dynamic parameters %%%
lost_ratio_sales_ret_th = 0.2531506197409319;
lost_ratio_sales_ret_w = 1;
lost_ratio_sales_dis_th = 0.7189953132564892;
lost_ratio_sales_dis_w = 84;
lost_ratio_sales_fac_th = 0.5743201660595127;
lost_ratio_sales_fac_w = 8;
stock_customer_MA_mean_relative_th = 0.5727788013949654;
stock_customer_MA_mean_relative_w = 60;
stock_distributor_MA_mean_relative_th = 0.22558957400888668;
stock_distributor_MA_mean_relative_w = 88;
stock_retailer_MA_mean_relative_th = 0.6385246488400953;
stock_retailer_MA_mean_relative_w = 90;
stock_factory_MA_mean_relative_th = 0.5114365606405226;
stock_factory_MA_mean_relative_w = 57;
